; --proof-with-sharing --index-fresh-sorts --proof-define-skolems --proof-prune --proof-merge --disable-print-success --disable-banner --max-time=1
(set-option :produce-proofs true)
(set-logic AUFLIA)
(declare-sort B_set_d 0)
(declare-fun a_d () B_set_d)
(declare-fun finite_d (B_set_d) Bool)
(assert (! (not (finite_d a_d)) :named a0))
(assert (! (finite_d a_d) :named a1))
(check-sat)
;;;;;;(get-proof)
